Route #1: 30 85 11 79
Route #2: 32 33 53 73 95 24
Route #3: 27 97 19
Route #4: 38 47 26 48 96 64 34
Route #5: 20 41 22 15
Route #6: 66 84 90 68
Route #7: 17 8
Route #8: 76 55 16 69
Route #9: 1 70 54
Route #10: 44 88 67 40
Route #11: 82 60 59
Route #12: 71 62 99 98 89
Route #13: 93 75
Route #14: 31 46 35
Route #15: 21 56 94 80
Route #16: 52 91 50
Route #17: 63 77 3
Route #18: 23 61 100
Route #19: 86 9 92
Route #20: 81 51 83
Route #21: 74 13 4
Route #22: 25 65 78 42 28
Route #23: 5 12 58
Route #24: 7 2 45 43 29 36 72 57
Route #25: 87 37 6 49 14
Route #26: 18 10 39
Cost 27591.0000
Time 16.0002